10
0 56 75 56 65 46 22 23 92 5 
9 0 95 3 82 62 13 75 33 51 
48 42 0 54 40 4 19 33 60 6 
48 3 89 0 56 16 71 18 54 38 
8 8 97 70 0 91 77 23 46 94 
97 92 43 70 45 0 11 14 66 9 
91 97 46 96 24 11 0 67 19 61 
58 59 66 20 50 67 2 0 48 50 
43 68 9 42 55 20 5 97 0 55 
77 29 60 80 68 19 26 28 36 0 
